NAME: random-25-11858
TYPE: TSP
COMMENT: size=25 seed=11858
DIMENSION: 52
EDGE_WEIGHT_TYPE: EUC_2D
NODE_COORD_SECTION
+0 406 969
-0 406 969
+1 841 764
-1 373 621
+2 349 621
-2 611 697
+3 245 413
-3 295 767
+4 740 605
-4 458 672
+5 324 481
-5 674 355
+6 129 58
-6 712 686
+7 124 272
-7 508 122
+8 832 472
-8 964 990
+9 835 899
-9 885 614
+10 623 379
-10 51 637
+11 55 143
-11 241 48
+12 701 728
-12 275 666
+13 571 379
-13 924 242
+14 849 500
-14 433 228
+15 107 74
-15 108 991
+16 5 395
-16 981 539
+17 638 36
-17 445 613
+18 435 262
-18 363 383
+19 828 217
-19 240 951
+20 718 210
-20 46 397
+21 721 455
-21 780 785
+22 361 892
-22 349 630
+23 476 114
-23 393 571
+24 86 380
-24 933 77
+25 821 70
-25 283 666
PRECEDENCE_SECTION
+0 -0
+1 -1
+2 -2
+3 -3
+4 -4
+5 -5
+6 -6
+7 -7
+8 -8
+9 -9
+10 -10
+11 -11
+12 -12
+13 -13
+14 -14
+15 -15
+16 -16
+17 -17
+18 -18
+19 -19
+20 -20
+21 -21
+22 -22
+23 -23
+24 -24
+25 -25
EOF
